% demand
num_movements = 24;
loading_factor = [1500, 1450, 1050, 850, 1450, 1800, 1450, 950, 900, 1150, 1650, 900, 900, 1150, 1850, 1450, 900, 1750, 1000, 1600, 1900, 1950, 1200, 1350];
pickup_time = [0, 0, 1, 1, 1, 1, 1, 2, 2, 2, 2, 2, 4, 5, 6, 6, 6, 7, 7, 8, 9, 9, 9, 9];
delivery_time = [1, 1, 2, 2, 4, 2, 2, 4, 6, 6, 9, 6, 6, 8, 7, 8, 7, 8, 8, 9, 10, 10, 10, 10];

% transporter definition
total_capacity = 7000;
num_decks = 3;
capacity = [3000, 1000, 3000];

% ways out of decks
num_ways_out = 1;
paths_out = array3d(decks, ways_out, decks, [
% ways out of deck d1
2, 3, 0, 

% ways out of deck d2
3, 0, 0, 

% ways out of deck d3
0, 0, 0,	

]);

